60
100
100
54.9 12.9 31.5 55.9 24.3 47.3 71.1 64.5 27.9 64.5 20.7 81.7 4.5 90.3 11.7 38.7 44.1 47.3 44.1 64.5 33.3 30.1 56.7 90.3 9.9 73.1 65.7 64.5 27.9 47.3 26.1 30.1 74.7 73.1 17.1 12.9 51.3 55.9 4.5 64.5 2.7 47.3 35.1 81.7 78.3 64.5 45.9 21.5 17.1 90.3 15.3 64.5 29.7 21.5 27.9 30.1 36.9 12.9 60.3 21.5 63.9 73.1 26.1 47.3 65.7 21.5 2.7 21.5 76.5 55.9 38.7 64.5 53.1 47.3 9.9 38.7 78.3 30.1 78.3 21.5 18.9 21.5 62.1 38.7 29.7 55.9 2.7 47.3 63.9 38.7 2.7 38.7 4.5 12.9 2.7 4.3 11.7 21.5 31.5 73.1 54.9 47.3 69.3 12.9 45.9 47.3 53.1 64.5 36.9 64.5 36.9 55.9 78.3 55.9 15.3 21.5 22.5 12.9 17.1 47.3 
